# Node Net
 35   1
  3   1
4833   1
1401   1
4837   2
1960   2
 40   2
 71   2
4761   3
 14   3
  7   3
4843   4
4690   4
 25   4
4849   5
4271   5
  2   5
771   6
211   6
4891   7
4340   7
 31   8
4850   8
4885   9
4898   9
4872  10
4130  10
